c WARNING: for repeatability, setting FPU to use double precision
c Problem Statistics:
c
c [33mBenchmark Information[0m
c Number of variables: 447
c Number of clauses: 884
c Number of literals: 2033
c Parse time: 0.00
c
c
c Backbone simplification
c The number of unit literal found is: 15
c Time to realize the backbone simplification: 0.000393
c
c [33mCollect Bi-Partition Procedure[0m
c Time to sort the selector: 0.000172
c Number of input variables computed: 35
c Time to compute the bi-partition: 0.003945
c
c Number of variables forgotten: 198
c Number of iterations: 2
c
c Vivification, total time: 0.000236
c Vivification, number of clauses removed: 188
c Vivification, number of literals removed: 67
c
c Occurrence Elimination, total time: 0.000160
c Occurrence Elimination, number of literals removed: 0
c Time used for the preprocessing step: 0.000665
c
p cnf 447 478
84 56 -70 0
173 -190 203 0
132 -133 0
-135 132 0
-135 -392 0
160 -145 135 0
108 -122 133 0
173 133 146 -160 -132 0
174 -146 -158 0
-203 -173 146 135 -190 -145 -132 133 0
188 -143 392 -174 0
160 190 -173 0
188 158 -174 0
-122 -132 146 203 -190 -160 -108 133 0
204 -146 -188 -158 0
204 174 -188 0
145 -160 203 -190 0
189 -175 159 0
-143 392 -204 218 -174 0
190 -173 135 -145 0
188 218 -204 0
159 -175 -231 242 -205 0
175 -189 438 -242 -219 0
-146 392 0
204 -218 232 0
189 -249 257 -205 -231 0
175 -189 205 0
175 -189 231 -219 0
-205 189 -231 242 0
257 -249 -231 219 0
-438 -254 261 262 0
-438 249 0
254 -255 0
254 -257 0
262 -261 -257 0
-249 257 242 0
-438 -254 -262 255 -257 0
71 -54 0
-56 70 0
145 -132 146 122 0
-135 -133 0
132 -392 0
-133 -392 0
173 145 -160 0
174 -158 143 0
-143 392 158 0
145 -108 146 -122 -132 133 0
-242 205 438 -219 0
189 -205 219 0
-242 231 438 0
261 262 249 -254 0
-255 -257 0
254 262 -261 0
-261 -255 262 0
-262 261 255 0
-133 122 0
-392 143 0
204 -188 143 -158 0
203 -190 146 122 -160 -132 0
158 -204 -174 218 0
-159 -175 438 -189 -219 -249 -242 257 0
232 174 -188 -218 0
257 -249 159 -205 -175 -231 0
-146 -158 232 -188 -218 0
-205 159 219 -175 0
143 -158 232 -188 -218 0
205 231 -219 0
-231 242 219 0
249 -257 0
131 0
-288 0
316 0
317 0
318 0
319 0
320 0
321 0
322 0
323 0
324 0
325 0
326 0
327 0
328 0
329 0
330 0
331 0
332 0
333 0
334 0
335 0
336 0
337 0
338 0
339 0
340 0
341 0
342 0
343 0
344 0
345 0
346 0
347 0
348 0
349 0
350 0
351 0
352 0
353 0
354 0
355 0
356 0
357 0
358 0
359 0
360 0
361 0
362 0
-1 0
-2 0
-3 0
-4 0
-5 0
-6 0
-7 0
-8 0
-9 0
-10 0
-11 0
-12 0
-13 0
-14 0
-15 0
-16 0
-17 0
-18 0
-19 0
-20 0
-21 0
-22 0
-23 0
-24 0
-25 0
-26 0
-27 0
-28 0
-29 0
-30 0
-31 0
-32 0
-33 0
-34 0
-35 0
-36 0
-37 0
-38 0
-39 0
-40 0
-41 0
-42 0
-43 0
-44 0
-45 0
-46 0
-47 0
-271 0
-272 0
-273 0
-274 0
-275 0
-276 0
-277 0
-278 0
-279 0
-280 0
-281 0
-282 0
-283 0
-284 0
-285 0
-286 0
-287 0
-446 0
-137 0
138 0
-394 0
-447 0
-139 0
140 0
-393 0
-289 0
-290 0
-291 0
-292 0
-293 0
-294 0
-295 0
-296 0
-297 0
-298 0
-299 0
-300 0
-301 0
-302 0
-303 0
-304 0
-305 0
-306 0
-307 0
-308 0
-309 0
-310 0
-311 0
-312 0
-313 0
-314 0
-315 0
-152 0
-399 0
388 0
129 0
121 0
-130 0
364 0
-127 0
385 0
128 0
50 0
55 0
-389 0
113 0
-51 0
-48 0
-52 0
107 0
-114 0
-111 0
49 0
-365 0
53 0
-363 0
-119 0
120 0
112 0
-386 0
-382 0
-57 0
366 0
67 0
69 0
-68 0
-59 0
60 0
-61 0
-64 0
-66 0
371 0
76 0
86 0
-77 0
-74 0
-372 0
75 0
-88 0
375 0
93 0
97 0
-94 0
-95 0
-374 0
96 0
-101 0
102 0
-380 0
-106 0
-115 0
-384 0
-155 0
-228 0
-244 0
c The variables forgot
153 0
116 0
62 0
58 0
376 0
373 0
370 0
369 0
368 0
367 0
104 0
100 0
65 0
63 0
383 0
379 0
103 0
445 0
444 0
443 0
442 0
441 0
439 0
437 0
434 0
432 0
431 0
429 0
426 0
425 0
423 0
421 0
420 0
417 0
415 0
413 0
412 0
410 0
408 0
407 0
404 0
402 0
400 0
390 0
387 0
381 0
99 0
270 0
268 0
266 0
264 0
260 0
258 0
256 0
263 0
265 0
253 0
269 0
251 0
248 0
247 0
246 0
73 0
72 0
81 0
83 0
80 0
82 0
90 0
92 0
89 0
98 0
110 0
118 0
124 0
126 0
134 0
136 0
142 0
147 0
149 0
151 0
150 0
157 0
162 0
164 0
166 0
168 0
170 0
172 0
177 0
179 0
181 0
183 0
185 0
187 0
192 0
194 0
196 0
198 0
200 0
202 0
207 0
209 0
211 0
213 0
215 0
217 0
161 0
222 0
224 0
226 0
163 0
230 0
234 0
236 0
238 0
240 0
165 0
169 0
79 0
78 0
85 0
235 0
178 0
180 0
184 0
191 0
197 0
239 0
241 0
243 0
436 0
117 0
109 0
91 0
105 0
237 0
87 0
377 0
201 0
206 0
220 0
227 0
427 0
229 0
208 0
212 0
406 0
144 0
154 0
223 0
398 0
216 0
148 0
225 0
156 0
214 0
123 0
391 0
210 0
167 0
171 0
176 0
250 0
233 0
182 0
411 0
199 0
416 0
221 0
195 0
428 0
193 0
186 0
245 0
141 0
267 0
125 0
252 0
378 0
405 0
419 0
433 0
403 0
435 0
397 0
422 0
401 0
395 0
440 0
424 0
418 0
259 0
396 0
414 0
430 0
409 0
c The number of literals is: 246
c The number of variables is: 38
